s td 65 35 103
b 1 2 58 96
b 2 4 77 98
b 3 10 49 61
b 4 15 87 103
b 5 17 18 39
b 6 20 39 52
b 7 21 49 53
b 8 24 54 66
b 9 32 67 98
b 10 5 36 103
b 11 41 59 66
b 12 9 45 74
b 13 55 62 67
b 14 63 82 95
b 15 55 67 98
b 16 39 70 90
b 17 6 39 72
b 18 66 78 101
b 19 66 84 94
b 20 9 14 89
b 21 55 81 92
b 22 25 68 102
b 23 9 14 61
b 24 17 39 83
b 25 39 52 53
b 26 54 64 66
b 27 58 96 97
b 28 9 49 61
b 29 25 68 77
b 30 9 74 95 100
b 31 25 77 98
b 32 55 76 81
b 33 22 39 90
b 34 39 96 97 100
b 35 5 87 103
b 36 6 39 48 88
b 37 22 39 88 98
b 38 5 7 38 76
b 39 1 3 8 9 12 19 23 25 26 27 29 34 35 37 39 40 42 43 46 47 48 50 56 64 66 71 75 79 85 86 91 93 95 96 98
b 40 1 8 9 12 19 23 25 26 27 29 34 35 37 39 40 42 43 46 47 48 49 50 56 64 66 71 75 79 85 86 91 93 95 96 98
b 41 1 8 9 12 19 23 25 26 27 29 33 34 35 37 39 40 42 43 47 48 49 50 56 64 66 71 75 79 85 86 91 93 95 96 98
b 42 1 8 9 12 19 23 25 26 27 33 34 35 37 39 40 42 43 47 48 49 50 55 56 64 66 75 79 85 86 91 95 96 98
b 43 1 8 9 12 19 23 25 26 27 31 33 34 35 37 39 40 42 47 48 49 50 55 66 79 85 86 91 95 96 98
b 44 1 8 9 12 19 23 25 26 27 31 33 34 35 37 39 42 47 48 49 50 51 55 85 86 91 95 96 98
b 45 8 9 12 19 23 25 26 27 31 33 35 37 39 42 47 48 49 50 51 55 85 86 87 91 95 98
b 46 5 8 9 12 23 25 26 31 35 37 39 42 48 49 50 51 55 85 87 91 95 98
b 47 5 7 37 39 48 49 55 95 98
b 48 7 39 48 49 88 98
b 49 39 49 53 88
b 50 5 7 39 55 76 95
b 51 5 16 35 39 51 55 91 95
b 52 1 8 9 12 19 23 25 27 29 33 35 39 40 48 49 50 64 65 66 71 75 79 86 91 93 95 98
b 53 1 8 9 12 23 25 35 39 40 48 49 50 65 66 71 75 79 86 91 93 95 98 99
b 54 1 8 9 25 40 48 60 65 66 93 95 99
b 55 1 3 8 9 12 19 25 26 27 29 34 35 37 39 40 42 43 46 47 48 50 56 64 66 71 73 75 79 85 86 91 93 95 96 98
b 56 1 3 8 9 12 13 19 25 26 27 29 34 35 37 39 40 42 43 46 47 48 50 56 66 71 73 75 79 85 86 91 93 96 98
b 57 1 3 8 9 12 13 19 25 26 27 28 29 34 35 37 39 42 43 46 47 48 50 56 66 71 73 75 79 85 86 91 96 98
b 58 3 8 9 12 13 19 25 26 27 28 29 34 35 37 39 42 43 46 47 48 50 56 57 66 71 73 75 85 86 91 96 98
b 59 3 8 9 12 13 19 25 26 27 29 34 35 37 39 42 43 46 48 50 56 57 66 71 73 75 80 86 91 98
b 60 3 8 9 12 13 19 25 26 27 29 30 35 37 39 42 43 46 48 50 56 57 71 73 75 80 86 91 98
b 61 3 8 9 12 13 19 25 26 29 30 35 39 43 46 48 50 57 69 71 73 75 80 86 98
b 62 3 9 11 12 13 25 26 39 43 48 50 57 69 71 75 86 98
b 63 1 9 35 43 44 46 56 64 71 73 79 85 95
b 64 9 39 95 96 100
b 65 39 76 83 95
1 27
2 31
3 28
4 35
5 24
6 25
7 49
8 26
9 15
10 35
11 39
12 30
13 15
14 39
15 42
16 33
17 36
18 39
19 39
20 23
21 32
22 29
23 28
24 65
25 49
26 39
27 34
28 40
29 31
30 64
31 39
32 50
33 37
34 64
35 46
36 48
37 48
38 50
39 40
39 55
39 64
40 41
41 42
41 52
42 43
43 44
44 45
45 46
46 47
46 51
47 48
47 50
48 49
50 65
52 53
53 54
55 56
55 63
56 57
57 58
58 59
59 60
60 61
61 62
